************************************************************************
file with basedata            : J12023_.BAS
initial value random generator: 1677488061
************************************************************************
projects                      :  1
jobs (incl. supersource/sink ):  122
horizon                       :  677
RESOURCES
  - renewable                 :  4   R
  - nonrenewable              :  0   N
  - doubly constrained        :  0   D
************************************************************************
PROJECT INFORMATION:
pronr.  #jobs rel.date duedate tardcost  MPM-Time
    1    120      0       96       97       96
************************************************************************
PRECEDENCE RELATIONS:
jobnr.    #modes  #successors   successors
   1        1          3           2   3   4
   2        1          3           9  15  54
   3        1          3           5   6  11
   4        1          3           7   8  33
   5        1          2          16 117
   6        1          3          10  22  25
   7        1          1          29
   8        1          3          24  27  32
   9        1          2          11  20
  10        1          3          12  14  31
  11        1          2          34  73
  12        1          2          13  18
  13        1          2          30  64
  14        1          3          17  42  74
  15        1          1          65
  16        1          3          20  21  57
  17        1          3          19  23  26
  18        1          2          60 106
  19        1          2          35  44
  20        1          1          37
  21        1          2          28  73
  22        1          3          46  49  63
  23        1          1          77
  24        1          3          36  48  94
  25        1          1          40
  26        1          3          82  85  93
  27        1          3          43  51  95
  28        1          1          88
  29        1          3          37  38  55
  30        1          1          32
  31        1          2          52 113
  32        1          1          96
  33        1          1          76
  34        1          3          71  94 119
  35        1          2          39  98
  36        1          3          53  58  77
  37        1          1          66
  38        1          3          41  47  80
  39        1          2          57  76
  40        1          3          80  84  97
  41        1          1          67
  42        1          3          68  86  93
  43        1          1          57
  44        1          3          45  54  69
  45        1          3          49  61  70
  46        1          2          48  76
  47        1          3          56  59  66
  48        1          3          80  83  89
  49        1          3          50  62  84
  50        1          2          68 102
  51        1          1          79
  52        1          1          78
  53        1          1          91
  54        1          3          81  96 118
  55        1          2          56  61
  56        1          2          72  83
  57        1          2          61  71
  58        1          3          69  85 114
  59        1          2          62 103
  60        1          3          69  79  86
  61        1          1          78
  62        1          3          68  89 116
  63        1          2          74 101
  64        1          1          90
  65        1          1         103
  66        1          2          71  78
  67        1          2          99 112
  68        1          2          85 100
  69        1          3          75  91 105
  70        1          1          95
  71        1          2          87  92
  72        1          1          97
  73        1          1         116
  74        1          3          82  84 121
  75        1          1         115
  76        1          1          86
  77        1          2          81 102
  78        1          1         104
  79        1          1          91
  80        1          1         106
  81        1          1         110
  82        1          1         106
  83        1          1          95
  84        1          2         107 111
  85        1          1         120
  86        1          1         101
  87        1          2         105 110
  88        1          1         107
  89        1          2          99 108
  90        1          1         112
  91        1          1         100
  92        1          1          96
  93        1          1          99
  94        1          2          98 109
  95        1          3          97 103 110
  96        1          1         109
  97        1          3          98 105 111
  98        1          1         121
  99        1          2         100 104
 100        1          1         101
 101        1          1         117
 102        1          3         104 108 111
 103        1          1         107
 104        1          1         109
 105        1          1         120
 106        1          1         108
 107        1          1         114
 108        1          1         113
 109        1          1         115
 110        1          1         115
 111        1          2         112 116
 112        1          2         113 114
 113        1          1         117
 114        1          1         118
 115        1          1         121
 116        1          2         119 120
 117        1          1         118
 118        1          1         119
 119        1          1         122
 120        1          1         122
 121        1          1         122
 122        1          0        
************************************************************************
REQUESTS/DURATIONS:
jobnr. mode duration  R 1  R 2  R 3  R 4
------------------------------------------------------------------------
  1      1     0       0    0    0    0
  2      1     6       0    5    0    0
  3      1     7       0    0    1    0
  4      1     9       0    6    0    0
  5      1     7       0    2    0    0
  6      1     3       1    0    0    0
  7      1     5       0    0    0    1
  8      1     5       0    0    9    0
  9      1     7       0    7    0    0
 10      1     5       0    2    0    0
 11      1     4       5    0    0    0
 12      1     2       0    0    4    0
 13      1     7       0    5    0    0
 14      1     7       0    0    0    4
 15      1     1       0    0    5    0
 16      1     6       0    4    0    0
 17      1     4       0   10    0    0
 18      1     4       7    0    0    0
 19      1     5       6    0    0    0
 20      1     9       0    0    0    1
 21      1     9       0    0    6    0
 22      1     7       0    0   10    0
 23      1     7      10    0    0    0
 24      1     2       3    0    0    0
 25      1     5       0    0    0    5
 26      1     8       0    0    0    1
 27      1     6       0    0    0    9
 28      1     4       0    0    4    0
 29      1     5       8    0    0    0
 30      1     9       0    0    7    0
 31      1     5       0    0    1    0
 32      1    10       0    0    0   10
 33      1     2       0    0    0    6
 34      1     1       5    0    0    0
 35      1     9       0    3    0    0
 36      1     4       0    0    0    4
 37      1     8       0    0    0    2
 38      1     8      10    0    0    0
 39      1     9       0    0    0    2
 40      1     3       1    0    0    0
 41      1     4       0    7    0    0
 42      1     7       8    0    0    0
 43      1     8       2    0    0    0
 44      1     5       7    0    0    0
 45      1     6       0    1    0    0
 46      1    10       8    0    0    0
 47      1     9       0    0    0    6
 48      1     3       0    0    0    1
 49      1     2       8    0    0    0
 50      1     3       0    0    6    0
 51      1     2       0    0    0    4
 52      1     4       0    0    0    2
 53      1     4       0    1    0    0
 54      1     1       0    0    0    4
 55      1     5       6    0    0    0
 56      1     9       0    0    0    7
 57      1     2       1    0    0    0
 58      1     7       0    1    0    0
 59      1     6       0    0    0    3
 60      1    10       0    3    0    0
 61      1     5       0    0    0    8
 62      1     8       0    0    1    0
 63      1     5       0    0    0    3
 64      1     8       1    0    0    0
 65      1    10       2    0    0    0
 66      1    10       0   10    0    0
 67      1     7       0    0    0    3
 68      1     5       0    0    0    3
 69      1     8       0    0    0    2
 70      1     8       0    1    0    0
 71      1     3       0    0   10    0
 72      1     6       0    0    9    0
 73      1     2       0    9    0    0
 74      1     2       0    0    0    7
 75      1     1       0    0    8    0
 76      1     1       0    9    0    0
 77      1     2       0    0    0    8
 78      1     8       0    7    0    0
 79      1     6       0    2    0    0
 80      1     9       0    0    0    5
 81      1     5       2    0    0    0
 82      1     8       4    0    0    0
 83      1     5       2    0    0    0
 84      1     9       0    0    9    0
 85      1     6       0    0    0    7
 86      1     1       0    0    0    2
 87      1     3       0    0    0    2
 88      1     2      10    0    0    0
 89      1    10       0    5    0    0
 90      1     3       9    0    0    0
 91      1     6       0    0    1    0
 92      1    10       0    0   10    0
 93      1    10       0    0    0    8
 94      1    10       0    0    3    0
 95      1     8       0    6    0    0
 96      1     1       7    0    0    0
 97      1    10       5    0    0    0
 98      1     4       0    0    0   10
 99      1     7       0    0    0    2
100      1     6       0    3    0    0
101      1     6       0    0    0    1
102      1     7       0    3    0    0
103      1     5       0   10    0    0
104      1     3       0    0    8    0
105      1     4       4    0    0    0
106      1     6      10    0    0    0
107      1     8       0    6    0    0
108      1     5       7    0    0    0
109      1     8       0    0    0    4
110      1     5       0    0    1    0
111      1     4       0    7    0    0
112      1     4       0    0    6    0
113      1     2       6    0    0    0
114      1     2       0    0    0    5
115      1     9       4    0    0    0
116      1     3       0    0    0    5
117      1     3       0    0    0    5
118      1     7       0    0    0    2
119      1     5       0    0    8    0
120      1     5       9    0    0    0
121      1     7       0    2    0    0
122      1     0       0    0    0    0
************************************************************************
RESOURCEAVAILABILITIES:
  R 1  R 2  R 3  R 4
   21   14   15   20
************************************************************************
